c FILE /home/rafael/Documents/HappySet/MIHS/inputs/happygen/output/graph_d_regular_k4_p0.2_v100_20241127_084027.txt
c SOURCE This is a d-regular graph formed for the happy graph colouring problem.
c DESCRIPTION It was generated using the problem generator of Rhyd Lewis
c
c GRAPH STATS
c Seed                             = 1027768072
c Number of Nodes                  = 100
c Number of colours k              = 4
c Number of pre-assignments        = 20
c Degree of all vertices           = 6
c Density                          = 0.0606061
c 
c The degrees of nodes 1 to 100, respectively, are as follows 
c [6, 6, 6, 6, 6, 6, 6, 6, 6, 6, 6, 6, 6, 6, 6, 6, 6, 6, 6, 6, 6, 6, 6, 6, 6, 6, 
c  6, 6, 6, 6, 6, 6, 6, 6, 6, 6, 6, 6, 6, 6, 6, 6, 6, 6, 6, 6, 6, 6, 6, 6, 6, 
c  6, 6, 6, 6, 6, 6, 6, 6, 6, 6, 6, 6, 6, 6, 6, 6, 6, 6, 6, 6, 6, 6, 6, 6, 6, 
c  6, 6, 6, 6, 6, 6, 6, 6, 6, 6, 6, 6, 6, 6, 6, 6, 6, 6, 6, 6, 6, 6, 6, 6] 
c  
p edge 100 300 4
e 1 13
e 1 24
e 1 31
e 1 33
e 1 76
e 1 92
e 2 8
e 2 10
e 2 38
e 2 53
e 2 92
e 2 97
e 3 17
e 3 24
e 3 30
e 3 31
e 3 67
e 3 73
e 4 16
e 4 25
e 4 35
e 4 39
e 4 76
e 4 92
e 5 22
e 5 34
e 5 37
e 5 43
e 5 52
e 5 60
e 6 32
e 6 49
e 6 54
e 6 63
e 6 74
e 6 90
e 7 30
e 7 53
e 7 57
e 7 61
e 7 89
e 7 91
e 8 37
e 8 38
e 8 44
e 8 46
e 8 86
e 9 13
e 9 20
e 9 51
e 9 82
e 9 89
e 9 95
e 10 17
e 10 32
e 10 41
e 10 77
e 10 85
e 11 20
e 11 26
e 11 43
e 11 68
e 11 84
e 11 96
e 12 47
e 12 62
e 12 64
e 12 68
e 12 82
e 12 87
e 13 20
e 13 44
e 13 98
e 13 99
e 14 22
e 14 38
e 14 52
e 14 59
e 14 69
e 14 93
e 15 31
e 15 49
e 15 62
e 15 73
e 15 75
e 15 93
e 16 27
e 16 48
e 16 53
e 16 54
e 16 82
e 17 23
e 17 35
e 17 55
e 17 95
e 18 22
e 18 28
e 18 31
e 18 39
e 18 53
e 18 86
e 19 25
e 19 45
e 19 51
e 19 60
e 19 68
e 19 100
e 20 66
e 20 85
e 20 94
e 21 25
e 21 33
e 21 38
e 21 59
e 21 79
e 21 95
e 22 51
e 22 78
e 22 93
e 23 50
e 23 56
e 23 57
e 23 65
e 23 83
e 24 54
e 24 63
e 24 64
e 24 84
e 25 32
e 25 60
e 25 67
e 26 42
e 26 47
e 26 56
e 26 88
e 26 90
e 27 29
e 27 57
e 27 70
e 27 79
e 27 97
e 28 39
e 28 52
e 28 63
e 28 72
e 28 92
e 29 33
e 29 41
e 29 56
e 29 73
e 29 94
e 30 51
e 30 82
e 30 89
e 30 95
e 31 46
e 31 96
e 32 58
e 32 63
e 32 72
e 33 67
e 33 79
e 33 99
e 34 37
e 34 38
e 34 77
e 34 87
e 34 93
e 35 39
e 35 65
e 35 80
e 35 98
e 36 59
e 36 62
e 36 63
e 36 79
e 36 84
e 36 87
e 37 47
e 37 85
e 37 88
e 38 50
e 39 64
e 39 65
e 40 47
e 40 49
e 40 64
e 40 76
e 40 92
e 40 97
e 41 75
e 41 80
e 41 94
e 41 96
e 42 44
e 42 67
e 42 70
e 42 85
e 42 89
e 43 60
e 43 75
e 43 98
e 43 100
e 44 51
e 44 66
e 44 71
e 45 48
e 45 49
e 45 74
e 45 95
e 45 99
e 46 48
e 46 56
e 46 66
e 46 72
e 47 71
e 47 88
e 48 66
e 48 74
e 48 75
e 49 50
e 49 86
e 50 67
e 50 72
e 50 74
e 51 57
e 52 61
e 52 75
e 52 81
e 53 76
e 53 94
e 54 72
e 54 85
e 54 91
e 55 60
e 55 65
e 55 73
e 55 78
e 55 81
e 56 59
e 56 61
e 57 88
e 57 90
e 58 69
e 58 78
e 58 88
e 58 89
e 58 90
e 59 83
e 59 92
e 60 69
e 61 70
e 61 86
e 61 91
e 62 90
e 62 98
e 62 100
e 63 84
e 64 91
e 64 96
e 65 77
e 65 80
e 66 77
e 66 96
e 67 83
e 68 71
e 68 72
e 68 73
e 69 71
e 69 80
e 69 98
e 70 81
e 70 87
e 70 89
e 71 78
e 71 100
e 73 93
e 74 86
e 74 87
e 75 83
e 76 87
e 76 93
e 77 94
e 77 100
e 78 86
e 78 88
e 79 97
e 79 99
e 80 81
e 80 83
e 81 84
e 81 98
e 82 83
e 82 91
e 84 90
e 85 97
e 91 96
e 94 100
e 95 99
e 97 99
n 1 1
n 8 3
n 14 2
n 17 3
n 22 2
n 25 3
n 26 2
n 33 1
n 39 2
n 40 2
n 45 3
n 48 3
n 53 2
n 63 1
n 70 1
n 75 3
n 81 1
n 85 4
n 88 2
n 96 2
